BEGIN IONS
RUN_FILE=190424.0810.tank.3.frag.val_HFC134a
COMPOUND_INDEX=0
AVERAGE_RETENTION_TIME_SECONDS=1478.65
EST_PRECURSOR_FORMULA=H2C2F4+
LIKELIHOOD_INDICATOR_IN_PERCENT=71.98
DBE=0.0
MOLECULAR_ION=True
COMPOUND_NAME=HFC134a
PRECURSOR_FORMULA=C2H2F4
PRECURSOR_MZ=102.00926271538
0.0 0.001 
26.015101 0.001 
30.997855 0.1 
33.013505 0.9740000000000001 
34.016859 0.01 
42.997855 0.004 
44.00568 0.013000000000000001 
45.013505 0.003 
49.996258 0.03 
51.004083 0.179 
52.007438 0.002 
61.996258 0.002 
63.004083 0.08800000000000001 
64.007438 0.012 
64.011908 0.012 
68.994661 1.0 
69.998016 0.01 
80.994661 0.001 
82.002486 0.046 
83.005841 0.72 
83.010311 0.72 
84.013666 0.015 
99.993064 0.003 
101.000889 0.01 
102.008714 0.018000000000000002 
END IONS

BEGIN IONS
RUN_FILE=190424.0810.tank.3.frag.val_HFC143a
COMPOUND_INDEX=0
AVERAGE_RETENTION_TIME_SECONDS=1426.26
EST_PRECURSOR_FORMULA=H3C2F3+
LIKELIHOOD_INDICATOR_IN_PERCENT=65.31
DBE=0.0
MOLECULAR_ION=True
COMPOUND_NAME=HFC143a
PRECURSOR_FORMULA=C2H3F3
PRECURSOR_MZ=84.01868458487999
26.015101 0.001 
30.997855 0.027000000000000003 
33.013505 0.048 
34.016859 0.0 
42.997855 0.002 
44.00568 0.017 
45.009034 0.071 
45.013505 0.071 
46.016859 0.002 
46.02133 0.002 
49.996258 0.008 
51.004083 0.013000000000000001 
61.996258 0.001 
63.004083 0.013000000000000001 
64.011908 0.053 
65.015263 0.20800000000000002 
65.019733 0.20800000000000002 
66.023088 0.004 
68.994661 1.0 
69.998016 0.011000000000000001 
82.002486 0.002 
83.010311 0.01 
84.018136 0.011000000000000001 
END IONS

BEGIN IONS
RUN_FILE=190424.0810.tank.3.frag.val_HFC152
COMPOUND_INDEX=0
AVERAGE_RETENTION_TIME_SECONDS=1635.34
EST_PRECURSOR_FORMULA=H4C2F2+
LIKELIHOOD_INDICATOR_IN_PERCENT=56.36
DBE=0.0
MOLECULAR_ION=True
COMPOUND_NAME=HFC152
PRECURSOR_FORMULA=C2H4F2
PRECURSOR_MZ=66.02810645438001
26.015101 0.011000000000000001 
27.022927 0.062 
30.997855 0.04 
33.013505 1.0 
34.016859 0.011000000000000001 
44.00568 0.026000000000000002 
45.013505 0.237 
46.016859 0.214 
46.02133 0.214 
47.024685 0.042 
47.029155 0.042 
51.004083 0.005 
63.004083 0.015 
64.011908 0.040999999999999995 
65.019733 0.065 
66.023088 0.1 
66.027558 0.1 
END IONS

BEGIN IONS
RUN_FILE=190424.0810.tank.3.frag.val_HFC227ea
COMPOUND_INDEX=0
AVERAGE_RETENTION_TIME_SECONDS=1514.40
EST_PRECURSOR_FORMULA= HC3F7+, H2C3F6+
LIKELIHOOD_INDICATOR_IN_PERCENT=56.70, 42.81
DBE=0.0, 0.0
MOLECULAR_ION=True, True
COMPOUND_NAME=HFC227ea
PRECURSOR_FORMULA=C3HF7
PRECURSOR_MZ=169.99664717134
0.0 0.002 
30.997855 0.042 
42.997855 0.002 
44.00568 0.004 
49.996258 0.013999999999999999 
51.004083 0.14800000000000002 
52.007438 0.001 
54.997855 0.0 
61.996258 0.002 
63.004083 0.009000000000000001 
68.994661 1.0 
69.998016 0.01 
73.996258 0.001 
75.004083 0.001 
80.994661 0.002 
82.002486 0.18100000000000002 
83.005841 0.003 
92.994661 0.005 
99.993064 0.013999999999999999 
100.996419 0.018000000000000002 
101.000889 0.018000000000000002 
102.004244 0.0 
113.000889 0.003 
118.991467 0.001 
130.991467 0.002 
149.98987 0.001 
150.997695 0.218 
152.00105 0.006 
END IONS

BEGIN IONS
RUN_FILE=190424.0810.tank.3.frag.val_HFC236cb
COMPOUND_INDEX=0
AVERAGE_RETENTION_TIME_SECONDS=1556.04
EST_PRECURSOR_FORMULA=H2C3F6+, H3C3F5+
LIKELIHOOD_INDICATOR_IN_PERCENT=61.16, 53.51
DBE=0.0, 0.0
MOLECULAR_ION=True, True
COMPOUND_NAME=HFC236cb
PRECURSOR_FORMULA=C3H2F6
PRECURSOR_MZ=152.00606904084
0.0 0.004 
26.015101 0.002 
30.997855 0.084 
33.013505 0.373 
34.016859 0.004 
37.007276 0.0 
38.015101 0.0 
42.997855 0.003 
44.00568 0.008 
45.013505 0.055999999999999994 
46.016859 0.001 
49.996258 0.027000000000000003 
51.004083 0.684 
52.007438 0.006 
54.997855 0.001 
56.00568 0.002 
61.996258 0.003 
63.004083 0.039 
64.007438 0.054000000000000006 
64.011908 0.054000000000000006 
65.015263 0.001 
68.994661 0.78 
69.998016 0.008 
73.996258 0.002 
75.004083 0.006999999999999999 
80.994661 0.003 
82.002486 0.068 
83.005841 1.0 
83.010311 1.0 
84.013666 0.02 
92.994661 0.005 
99.993064 0.102 
100.996419 0.004 
101.000889 0.004 
113.000889 0.028999999999999998 
114.004244 0.001 
114.008714 0.001 
118.991467 0.099 
119.994822 0.001 
130.991467 0.001 
131.999292 0.001 
133.007117 0.067 
134.010472 0.002 
END IONS

BEGIN IONS
RUN_FILE=190424.0810.tank.3.frag.val_HFC236ea
COMPOUND_INDEX=0
AVERAGE_RETENTION_TIME_SECONDS=1585.39
EST_PRECURSOR_FORMULA=H2C3F6+, H3C3F5+
LIKELIHOOD_INDICATOR_IN_PERCENT=53.03, 46.40
DBE=0.0, 0.0
MOLECULAR_ION=True, True
COMPOUND_NAME=HFC236ea
PRECURSOR_FORMULA=C3H2F6
PRECURSOR_MZ=152.00606904084
0.0 0.001 
26.015101 0.001 
30.997855 0.046 
33.013505 0.045 
37.007276 0.0 
45.013505 0.027999999999999997 
46.016859 0.0 
49.996258 0.011000000000000001 
51.004083 1.0 
52.007438 0.01 
54.997855 0.001 
56.00568 0.002 
61.996258 0.002 
63.004083 0.016 
64.007438 0.075 
64.011908 0.075 
65.015263 0.001 
68.994661 0.40299999999999997 
69.998016 0.004 
73.996258 0.001 
75.004083 0.005 
80.994661 0.001 
82.002486 0.335 
83.005841 0.038 
83.010311 0.038 
84.013666 0.001 
92.994661 0.004 
94.002486 0.001 
95.010311 0.001 
99.993064 0.003 
101.000889 0.005 
113.000889 0.017 
114.004244 0.0 
130.991467 0.001 
133.007117 0.08900000000000001 
134.010472 0.002 
END IONS

BEGIN IONS
RUN_FILE=190424.0810.tank.3.frag.val_HFC245fa
COMPOUND_INDEX=0
AVERAGE_RETENTION_TIME_SECONDS=1604.00
EST_PRECURSOR_FORMULA=H3C3F5+, H4C3F4+
LIKELIHOOD_INDICATOR_IN_PERCENT=51.34, 49.57
DBE=0.0, 0.0
MOLECULAR_ION=True, True
COMPOUND_NAME=HFC245fa
PRECURSOR_FORMULA=C3H3F5
PRECURSOR_MZ=134.01549091034002
0.0 0.003 
0.0 0.022000000000000002 
26.015101 0.005 
27.022927 0.019 
30.997855 0.039 
33.013505 0.021 
37.007276 0.001 
38.015101 0.001 
44.00568 0.024 
45.009034 0.077 
45.013505 0.077 
46.016859 0.07400000000000001 
46.02133 0.07400000000000001 
47.024685 0.001 
49.996258 0.011000000000000001 
51.004083 1.0 
52.007438 0.01 
54.997855 0.001 
56.00568 0.002 
61.996258 0.001 
63.004083 0.01 
64.011908 0.607 
65.015263 0.044000000000000004 
65.019733 0.044000000000000004 
66.023088 0.0 
68.994661 0.34 
69.998016 0.004 
73.996258 0.002 
75.004083 0.012 
76.011908 0.0 
82.002486 0.005 
83.010311 0.003 
92.994661 0.005 
94.002486 0.001 
95.010311 0.026000000000000002 
96.013666 0.001 
113.000889 0.046 
114.004244 0.004 
114.008714 0.004 
115.016539 0.18100000000000002 
116.019894 0.005 
END IONS

BEGIN IONS
RUN_FILE=190424.0810.tank.3.frag.val_HFC41
COMPOUND_INDEX=0
AVERAGE_RETENTION_TIME_SECONDS=1386.89
EST_PRECURSOR_FORMULA=H3CF+
LIKELIHOOD_INDICATOR_IN_PERCENT=74.92
DBE=0.0
MOLECULAR_ION=True
COMPOUND_NAME=HFC41
PRECURSOR_FORMULA=CH3F
PRECURSOR_MZ=34.02187825942
30.997855 0.061 
33.013505 0.9109999999999999 
34.016859 1.0 
34.02133 1.0 
35.024685 0.008 
END IONS

BEGIN IONS
RUN_FILE=190424.0810.tank.3.frag.val_HFC4310mee
COMPOUND_INDEX=0
AVERAGE_RETENTION_TIME_SECONDS=1747.78
EST_PRECURSOR_FORMULA=H2C4F8+, H3C4F7+
LIKELIHOOD_INDICATOR_IN_PERCENT=57.89, 48.65
DBE=0.0, 0.0
MOLECULAR_ION=True, True
COMPOUND_NAME=HFC4310mee
PRECURSOR_FORMULA=C5H2F10
PRECURSOR_MZ=251.99968169176
0.0 0.017 
0.0 0.001 
0.0 0.001 
26.015101 0.001 
30.997855 0.038 
33.013505 0.006 
37.007276 0.001 
38.015101 0.001 
45.013505 0.022000000000000002 
49.996258 0.01 
51.004083 0.5329999999999999 
52.007438 0.005 
54.997855 0.001 
56.00568 0.004 
57.013505 0.004 
61.996258 0.001 
63.004083 0.008 
64.011908 0.025 
68.00568 0.0 
68.994661 1.0 
69.998016 0.01 
73.996258 0.003 
75.004083 0.033 
76.007438 0.002 
76.011908 0.002 
80.994661 0.001 
82.002486 0.069 
83.005841 0.01 
83.010311 0.01 
92.994661 0.011000000000000001 
93.998016 0.004 
94.002486 0.004 
95.010311 0.251 
96.013666 0.006999999999999999 
99.993064 0.03 
100.996419 0.075 
101.000889 0.075 
102.004244 0.001 
102.008714 0.001 
106.002486 0.001 
111.993064 0.0 
113.000889 0.16899999999999998 
114.004244 0.01 
114.008714 0.01 
118.991467 0.24100000000000002 
119.994822 0.004 
123.993064 0.001 
125.000889 0.0 
126.008714 0.0 
130.991467 0.004 
131.999292 0.003 
133.007117 0.121 
134.010472 0.003 
143.999292 0.001 
145.007117 0.052000000000000005 
146.010472 0.002 
150.997695 0.035 
152.00105 0.001 
162.997695 0.059000000000000004 
164.00105 0.002 
168.988274 0.002 
180.988274 0.0 
183.003924 0.106 
184.007278 0.003 
END IONS

BEGIN IONS
RUN_FILE=190425.1731.tank.3.frag.val_HFC125
COMPOUND_INDEX=0
AVERAGE_RETENTION_TIME_SECONDS=1418.06
EST_PRECURSOR_FORMULA= HC2F5+, H2C2F4+,   C2F6+
LIKELIHOOD_INDICATOR_IN_PERCENT=59.79, 43.55, 13.85
DBE=0.0, 0.0, 0.0
MOLECULAR_ION=True, True, True
COMPOUND_NAME=HFC125
PRECURSOR_FORMULA=C2HF5
PRECURSOR_MZ=119.99984084588
0.0 0.006999999999999999 
30.997855 0.077 
42.997855 0.003 
49.996258 0.040999999999999995 
51.004083 1.0 
52.007438 0.01 
61.996258 0.001 
63.004083 0.001 
68.994661 0.262 
69.998016 0.002 
80.994661 0.001 
82.002486 0.003 
99.993064 0.024 
100.996419 0.589 
101.000889 0.589 
102.004244 0.011000000000000001 
118.991467 0.013999999999999999 
END IONS

BEGIN IONS
RUN_FILE=190425.1731.tank.3.frag.val_HFC134
COMPOUND_INDEX=0
AVERAGE_RETENTION_TIME_SECONDS=1501.26
EST_PRECURSOR_FORMULA=H2C2F4+
LIKELIHOOD_INDICATOR_IN_PERCENT=72.00
DBE=0.0
MOLECULAR_ION=True
COMPOUND_NAME=HFC134
PRECURSOR_FORMULA=C2H2F4
PRECURSOR_MZ=102.00926271538
26.015101 0.002 
30.997855 0.079 
33.013505 0.344 
34.016859 0.004 
42.997855 0.003 
44.00568 0.013000000000000001 
45.013505 0.003 
49.996258 0.015 
51.004083 1.0 
52.007438 0.011000000000000001 
61.996258 0.001 
63.004083 0.073 
64.007438 0.008 
64.011908 0.008 
68.994661 0.004 
80.994661 0.001 
82.002486 0.044000000000000004 
83.005841 0.633 
83.010311 0.633 
84.013666 0.013000000000000001 
99.993064 0.006 
101.000889 0.087 
102.004244 0.027000000000000003 
102.008714 0.027000000000000003 
END IONS

BEGIN IONS
RUN_FILE=190425.1731.tank.3.frag.val_HFC143
COMPOUND_INDEX=0
AVERAGE_RETENTION_TIME_SECONDS=1554.70
EST_PRECURSOR_FORMULA=H3C2F3+
LIKELIHOOD_INDICATOR_IN_PERCENT=49.93
DBE=0.0
MOLECULAR_ION=True
COMPOUND_NAME=HFC143
PRECURSOR_FORMULA=C2H3F3
PRECURSOR_MZ=84.01868458487999
0.0 0.001 
30.997855 0.11199999999999999 
33.013505 0.278 
34.016859 0.002 
42.997855 0.006 
44.00568 0.059000000000000004 
45.009034 0.36700000000000005 
45.013505 0.36700000000000005 
46.016859 0.013000000000000001 
51.004083 1.0 
52.007438 0.01 
61.996258 0.004 
63.004083 0.055 
64.007438 0.081 
64.011908 0.081 
65.015263 0.162 
65.019733 0.162 
66.023088 0.003 
80.994661 0.001 
82.002486 0.045 
84.018136 0.055 
END IONS

BEGIN IONS
RUN_FILE=190425.1731.tank.3.frag.val_HFC152a
COMPOUND_INDEX=0
AVERAGE_RETENTION_TIME_SECONDS=1514.16
EST_PRECURSOR_FORMULA=H4C2F2+, H3C2F3+,  H5C2F+
LIKELIHOOD_INDICATOR_IN_PERCENT=60.85, 46.65, 12.51
DBE=0.0, 0.0, 0.0
MOLECULAR_ION=True, True, True
COMPOUND_NAME=HFC152a
PRECURSOR_FORMULA=C2H4F2
PRECURSOR_MZ=66.02810645438001
0.0 0.001 
26.015101 0.01 
27.022927 0.025 
30.997855 0.039 
33.013505 0.012 
42.997855 0.003 
44.00568 0.028999999999999998 
45.013505 0.13699999999999998 
46.016859 0.055 
46.02133 0.055 
47.024685 0.131 
47.029155 0.131 
48.03251 0.002 
49.996258 0.008 
51.004083 1.0 
52.007438 0.01 
63.004083 0.016 
64.011908 0.038 
65.019733 0.474 
66.023088 0.012 
END IONS

BEGIN IONS
RUN_FILE=190425.1731.tank.3.frag.val_HFC23
COMPOUND_INDEX=0
AVERAGE_RETENTION_TIME_SECONDS=1303.32
EST_PRECURSOR_FORMULA= HCF3+,   CF4+, H2CF2+
LIKELIHOOD_INDICATOR_IN_PERCENT=57.14, 35.84, 24.75
DBE=0.0, 0.0, 0.0
MOLECULAR_ION=True, True, True
COMPOUND_NAME=HFC23
PRECURSOR_FORMULA=CHF3
PRECURSOR_MZ=70.00303452042
30.997855 0.258 
49.996258 0.16 
51.004083 0.9540000000000001 
52.007438 0.008 
68.994661 1.0 
69.998016 0.01 
END IONS

BEGIN IONS
RUN_FILE=190425.1731.tank.3.frag.val_HFC236fa
COMPOUND_INDEX=0
AVERAGE_RETENTION_TIME_SECONDS=1554.84
EST_PRECURSOR_FORMULA=H2C3F6+, H3C3F5+
LIKELIHOOD_INDICATOR_IN_PERCENT=22.45, 19.64
DBE=0.0, 0.0
MOLECULAR_ION=True, True
COMPOUND_NAME=HFC236fa
PRECURSOR_FORMULA=C3H2F6
PRECURSOR_MZ=152.00606904084
26.015101 0.003 
49.996258 0.015 
64.011908 0.33799999999999997 
68.994661 1.0 
69.998016 0.01 
73.996258 0.002 
75.004083 0.003 
92.994661 0.006999999999999999 
101.000889 0.0 
113.000889 0.055999999999999994 
114.004244 0.002 
131.999292 0.002 
133.007117 0.22899999999999998 
134.010472 0.006999999999999999 
END IONS

BEGIN IONS
RUN_FILE=190425.1731.tank.3.frag.val_HFC245ca
COMPOUND_INDEX=0
AVERAGE_RETENTION_TIME_SECONDS=1637.77
EST_PRECURSOR_FORMULA=H2C3F4+, H3C3F3+, H4C2F2+, H3C2F3+,  HC2F5+, H2C2F4+
LIKELIHOOD_INDICATOR_IN_PERCENT=55.87, 53.87, 33.13, 29.31, 24.79, 19.83
DBE=1.0, 1.0, 0.0, 0.0, 0.0, 0.0
MOLECULAR_ION=True, True, True, True, True, True
COMPOUND_NAME=HFC245ca
PRECURSOR_FORMULA=C3H3F5
PRECURSOR_MZ=134.01549091034002
0.0 0.001 
0.0 0.013000000000000001 
26.015101 0.002 
27.022927 0.012 
30.997855 0.057999999999999996 
33.013505 0.258 
34.016859 0.003 
37.007276 0.002 
38.015101 0.002 
44.00568 0.015 
45.013505 0.046 
46.02133 0.013000000000000001 
49.996258 0.008 
51.004083 1.0 
52.007438 0.01 
54.997855 0.001 
56.00568 0.003 
57.013505 0.004 
61.996258 0.001 
63.004083 0.033 
64.011908 0.196 
65.015263 0.048 
65.019733 0.048 
68.994661 0.062 
75.004083 0.008 
82.002486 0.098 
83.005841 0.825 
83.010311 0.825 
84.013666 0.016 
92.994661 0.001 
95.010311 0.013999999999999999 
99.993064 0.006 
101.000889 0.14400000000000002 
102.004244 0.002 
END IONS

BEGIN IONS
RUN_FILE=190425.1731.tank.3.frag.val_HFC32
COMPOUND_INDEX=0
AVERAGE_RETENTION_TIME_SECONDS=1375.79
EST_PRECURSOR_FORMULA=H2CF2+
LIKELIHOOD_INDICATOR_IN_PERCENT=71.39
DBE=0.0
MOLECULAR_ION=True
COMPOUND_NAME=HFC32
PRECURSOR_FORMULA=CH2F2
PRECURSOR_MZ=52.01245638992
30.997855 0.217 
33.013505 0.6890000000000001 
34.016859 0.006 
49.996258 0.046 
51.004083 1.0 
52.007438 0.102 
52.011908 0.102 
END IONS

BEGIN IONS
RUN_FILE=190425.1731.tank.3.frag.val_HFC365mfc
COMPOUND_INDEX=0
AVERAGE_RETENTION_TIME_SECONDS=1723.64
EST_PRECURSOR_FORMULA=  H6C4F4+,   H2C3F6+,   H3C3F5+, H2C3F5Cl+,  H4C3FCl+, H3C3FCl2+, H3C3F2Cl+,   H5C3Cl+
LIKELIHOOD_INDICATOR_IN_PERCENT=33.27, 21.54, 18.84, 11.73,  3.18,  2.53,  2.53,  0.72
DBE=0.0, 0.0, 0.0, 0.0, 1.0, 1.0, 1.0, 1.0
MOLECULAR_ION=True, True, True, True, True, True, True, True
COMPOUND_NAME=HFC365mfc
PRECURSOR_FORMULA=C4H5F5
PRECURSOR_MZ=148.0311409748
26.015101 0.001 
27.022927 0.004 
30.997855 0.018000000000000002 
33.013505 0.032 
37.007276 0.005 
38.015101 0.009000000000000001 
39.022927 0.036000000000000004 
40.026281 0.003 
40.030752 0.003 
44.00568 0.015 
45.013505 0.109 
46.016859 0.005 
46.02133 0.005 
47.029155 0.001 
49.996258 0.003 
51.004083 0.038 
54.997855 0.001 
56.00568 0.003 
57.013505 0.018000000000000002 
58.02133 0.001 
59.029155 0.044000000000000004 
60.03251 0.009000000000000001 
60.03698 0.009000000000000001 
62.999604 0.009000000000000001 
63.004083 0.009000000000000001 
64.011908 0.128 
65.015263 1.0 
65.019733 1.0 
66.023088 0.02 
68.994661 0.237 
69.998016 0.002 
75.004083 0.008 
76.007429 0.001 
77.019733 0.025 
78.023088 0.003 
78.027558 0.003 
82.002486 0.005 
83.010311 0.009000000000000001 
88.011908 0.002 
89.019733 0.013999999999999999 
92.990182 0.003 
92.994661 0.003 
94.987232 0.004 
95.010311 0.004 
108.018136 0.002 
109.025961 0.008 
113.000889 0.051 
114.004244 0.001 
127.016539 0.002 
128.024364 0.024 
129.027719 0.02 
129.032189 0.02 
130.035544 0.001 
130.040014 0.001 
131.999292 0.009000000000000001 
133.007117 0.304 
134.010472 0.009000000000000001 
END IONS

BEGIN IONS
RUN_FILE=200224.0907.tank.5.frag.val_hexachlorobutadiene
COMPOUND_INDEX=0
AVERAGE_RETENTION_TIME_SECONDS=2630.69
EST_PRECURSOR_FORMULA=C4Cl6+
LIKELIHOOD_INDICATOR_IN_PERCENT=49.94
DBE=2.0
MOLECULAR_ION=True
COMPOUND_NAME=hexachlorobutadiene
PRECURSOR_FORMULA=C4Cl6
PRECURSOR_MZ=257.813116092
0.0 0.036000000000000004 
34.968304 0.053 
35.999451 0.016 
46.968304 0.151 
48.965354 0.033 
70.968304 0.08 
81.937157 0.025 
82.968304 0.163 
84.965354 0.042 
93.937157 0.10099999999999999 
95.934207 0.054000000000000006 
105.937157 0.063 
107.934207 0.025 
117.937157 0.322 
119.934207 0.19 
140.90601 0.22399999999999998 
142.903059 0.209 
144.900109 0.051 
152.90601 0.121 
154.903059 0.124 
187.874862 0.295 
189.871912 0.397 
191.868962 0.165 
222.843715 0.588 
224.840765 1.0 
226.837815 0.612 
228.834865 0.157 
257.812568 0.125 
259.809618 0.28300000000000003 
261.806667 0.21899999999999997 
263.803717 0.067 
END IONS

BEGIN IONS
RUN_FILE=200224.0907.tank.5.frag.val_TCHFB
COMPOUND_INDEX=0
AVERAGE_RETENTION_TIME_SECONDS=1810.24
EST_PRECURSOR_FORMULA=C3F5Cl3+, C3F4Cl4+,  C4F7Cl+, C4F6Cl2+
LIKELIHOOD_INDICATOR_IN_PERCENT=43.83, 41.81, 35.56, 26.55
DBE=0.0, 0.0, 1.0, 1.0
MOLECULAR_ION=True, True, True, True
COMPOUND_NAME=TCHFB
PRECURSOR_FORMULA=C4Cl4F6
PRECURSOR_MZ=301.86582970437996
30.997855 0.033 
34.968304 0.006 
46.968304 0.012 
48.965354 0.002 
49.996258 0.011000000000000001 
54.997855 0.006999999999999999 
61.996258 0.006 
65.966707 0.02 
67.963757 0.008 
68.994661 0.156 
73.996258 0.024 
77.966707 0.006 
79.963757 0.002 
80.994661 0.004 
81.937157 0.004 
83.934207 0.002 
84.96511 1.0 
85.968465 0.008 
86.96216 0.295 
87.965515 0.002 
89.966707 0.004 
92.994661 0.113 
93.998016 0.003 
96.96511 0.005 
108.96511 0.026000000000000002 
110.96216 0.006999999999999999 
111.993064 0.012 
115.963514 0.092 
117.960563 0.027999999999999997 
118.991467 0.004 
123.993064 0.002 
130.991467 0.018000000000000002 
131.933963 0.016 
133.931013 0.011000000000000001 
134.961917 0.094 
135.928063 0.002 
135.965272 0.002 
136.958967 0.049 
142.991467 0.004 
146.961917 0.19399999999999998 
147.965272 0.004 
148.958967 0.057 
150.932366 0.272 
151.935721 0.003 
152.929416 0.168 
153.932771 0.002 
154.926466 0.021 
154.926466 0.002 
161.98987 0.013000000000000001 
162.932366 0.037000000000000005 
164.929416 0.024 
166.926466 0.001 
178.902816 0.015 
180.899866 0.015 
181.930769 0.043 
182.896916 0.006 
182.934124 0.006 
183.927819 0.027000000000000003 
185.924869 0.002 
196.958723 0.022000000000000002 
197.901219 0.002 
197.962078 0.002 
198.955773 0.005 
199.898269 0.002 
216.899622 0.009000000000000001 
218.896672 0.009000000000000001 
220.893722 0.001 
END IONS

BEGIN IONS
RUN_FILE=200602.1550.std.7.frag.train_C2Cl4
COMPOUND_INDEX=0
AVERAGE_RETENTION_TIME_SECONDS=1856.84
EST_PRECURSOR_FORMULA=C2Cl4+
LIKELIHOOD_INDICATOR_IN_PERCENT=71.99
DBE=1.0
MOLECULAR_ION=True
COMPOUND_NAME=C2Cl4
PRECURSOR_FORMULA=C2Cl4
PRECURSOR_MZ=163.875410728
0.0 0.012 
34.968304 0.061 
46.968304 0.128 
58.968304 0.094 
81.937157 0.059000000000000004 
83.934207 0.034 
85.931257 0.004 
93.937157 0.28600000000000003 
94.940512 0.008 
95.934207 0.192 
116.90601 0.004 
118.903059 0.006 
128.90601 0.715 
129.909364 0.013000000000000001 
130.903059 0.7040000000000001 
131.906414 0.013000000000000001 
132.900109 0.21899999999999997 
134.897159 0.019 
163.874862 0.779 
164.878217 0.012 
165.871912 1.0 
166.875267 0.015 
167.868962 0.483 
168.872317 0.01 
169.866012 0.099 
171.863062 0.006 
END IONS

BEGIN IONS
RUN_FILE=200602.1550.std.7.frag.train_C2H6
COMPOUND_INDEX=0
AVERAGE_RETENTION_TIME_SECONDS=1275.56
EST_PRECURSOR_FORMULA=H6C2+
LIKELIHOOD_INDICATOR_IN_PERCENT=70.22
DBE=0.0
MOLECULAR_ION=True
COMPOUND_NAME=C2H6
PRECURSOR_FORMULA=C2H6
PRECURSOR_MZ=30.04695019338
0.0 0.009000000000000001 
26.015101 0.11599999999999999 
27.022927 0.266 
28.030752 1.0 
29.038577 0.262 
30.046402 0.33299999999999996 
END IONS

BEGIN IONS
RUN_FILE=200602.1550.std.7.frag.train_C2HCl3
COMPOUND_INDEX=0
AVERAGE_RETENTION_TIME_SECONDS=1745.06
EST_PRECURSOR_FORMULA=HC2Cl3+
LIKELIHOOD_INDICATOR_IN_PERCENT=40.85
DBE=1.0
MOLECULAR_ION=True
COMPOUND_NAME=C2HCl3
PRECURSOR_FORMULA=C2HCl3
PRECURSOR_MZ=129.91438307823
0.0 0.006 
0.0 0.009000000000000001 
46.968304 0.053 
48.965354 0.016 
58.968304 0.04 
59.976129 0.28 
60.965354 0.015 
60.979484 0.015 
61.973179 0.078 
81.937157 0.012 
83.934207 0.008 
93.937157 0.067 
94.944982 0.8859999999999999 
95.934207 0.059000000000000004 
95.948337 0.059000000000000004 
96.942032 0.575 
97.931257 0.018000000000000002 
97.945387 0.018000000000000002 
98.939082 0.083 
129.913835 1.0 
131.910884 0.981 
132.914239 0.006999999999999999 
133.907934 0.298 
135.904984 0.016 
END IONS

BEGIN IONS
RUN_FILE=200602.1550.std.7.frag.train_C3H8
COMPOUND_INDEX=0
AVERAGE_RETENTION_TIME_SECONDS=1383.66
EST_PRECURSOR_FORMULA=H8C3+
LIKELIHOOD_INDICATOR_IN_PERCENT=66.57
DBE=0.0
MOLECULAR_ION=True
COMPOUND_NAME=C3H8
PRECURSOR_FORMULA=C3H8
PRECURSOR_MZ=44.06260025784
26.015101 0.032 
27.018456 0.253 
27.022927 0.253 
28.026281 0.486 
28.029203 0.486 
28.030752 0.486 
29.034106 1.0 
29.037028 1.0 
29.038577 1.0 
30.041931 0.025 
30.044853 0.025 
31.045286 0.0 
35.999451 0.008 
37.002806 0.063 
37.007276 0.063 
38.010631 0.111 
38.015101 0.111 
39.018456 0.42100000000000004 
39.022927 0.42100000000000004 
40.026281 0.06 
40.029203 0.06 
41.029636 0.371 
41.038577 0.371 
42.041931 0.121 
42.044853 0.121 
43.045286 0.7170000000000001 
43.054227 0.7170000000000001 
44.057581 0.7170000000000001 
44.060503 0.7170000000000001 
44.062052 0.7170000000000001 
45.060936 0.023 
45.065407 0.023 
45.068328 0.023 
46.068761 0.0 
END IONS

BEGIN IONS
RUN_FILE=200602.1550.std.7.frag.train_C6F14
COMPOUND_INDEX=0
AVERAGE_RETENTION_TIME_SECONDS=1625.41
EST_PRECURSOR_FORMULA=C4F10+
LIKELIHOOD_INDICATOR_IN_PERCENT=39.04
DBE=0.0
MOLECULAR_ION=True
COMPOUND_NAME=C6F14
PRECURSOR_FORMULA=C6F14
PRECURSOR_MZ=337.97764427822
0.0 0.073 
30.997855 0.016 
68.994661 1.0 
80.994661 0.002 
92.994661 0.02 
99.993064 0.064 
111.993064 0.006999999999999999 
118.991467 0.174 
119.994822 0.002 
130.991467 0.187 
131.994822 0.006 
149.98987 0.012 
168.988274 0.21600000000000003 
169.991628 0.004 
180.988274 0.053 
181.991628 0.001 
199.986677 0.003 
218.98508 0.07400000000000001 
219.988435 0.005 
END IONS

BEGIN IONS
RUN_FILE=200602.1550.std.7.frag.train_C6H6
COMPOUND_INDEX=0
AVERAGE_RETENTION_TIME_SECONDS=1862.39
EST_PRECURSOR_FORMULA=H6C6+
LIKELIHOOD_INDICATOR_IN_PERCENT=59.83
DBE=4.0
MOLECULAR_ION=True
COMPOUND_NAME=C6H6
PRECURSOR_FORMULA=C6H6
PRECURSOR_MZ=78.04695019338
26.015101 0.003 
27.018456 0.006 
27.022927 0.006 
35.999451 0.001 
37.007276 0.012 
38.010631 0.018000000000000002 
38.015101 0.018000000000000002 
39.018456 0.059000000000000004 
39.022927 0.059000000000000004 
40.026281 0.002 
47.999451 0.001 
49.002806 0.015 
49.007276 0.015 
50.010631 0.11599999999999999 
50.015101 0.11599999999999999 
51.018456 0.13 
51.022927 0.13 
52.021811 0.139 
52.026281 0.139 
52.029203 0.139 
52.030752 0.139 
53.029636 0.006 
53.034106 0.006 
53.037028 0.006 
59.999451 0.001 
61.002806 0.005 
61.007276 0.005 
63.022927 0.027000000000000003 
64.026281 0.001 
71.999451 0.001 
73.002806 0.015 
73.007276 0.015 
74.010631 0.048 
74.015101 0.048 
75.018456 0.017 
75.022927 0.017 
76.021811 0.052000000000000005 
76.026281 0.052000000000000005 
76.030752 0.052000000000000005 
77.034106 0.251 
77.038577 0.251 
78.037461 1.0 
78.041931 1.0 
78.044853 1.0 
78.046402 1.0 
79.045286 0.065 
79.049756 0.065 
79.052678 0.065 
80.053111 0.002 
80.056033 0.002 
END IONS

BEGIN IONS
RUN_FILE=200602.1550.std.7.frag.train_C7H8
COMPOUND_INDEX=0
AVERAGE_RETENTION_TIME_SECONDS=2178.57
EST_PRECURSOR_FORMULA=H8C7+
LIKELIHOOD_INDICATOR_IN_PERCENT=79.71
DBE=4.0
MOLECULAR_ION=True
COMPOUND_NAME=C7H8
PRECURSOR_FORMULA=C7H8
PRECURSOR_MZ=92.06260025784
0.0 0.001 
0.0 0.004 
0.0 0.0 
0.0 0.001 
0.0 0.008 
0.0 0.004 
0.0 0.015 
26.015101 0.001 
27.022927 0.004 
29.038577 0.0 
35.999451 0.0 
37.007276 0.005 
38.010631 0.011000000000000001 
38.015101 0.011000000000000001 
39.018456 0.059000000000000004 
39.022927 0.059000000000000004 
40.026281 0.006999999999999999 
40.029203 0.006999999999999999 
40.030752 0.006999999999999999 
41.029636 0.006999999999999999 
41.034106 0.006999999999999999 
41.038577 0.006999999999999999 
42.041931 0.001 
42.046402 0.001 
47.999451 0.0 
49.007276 0.003 
50.010631 0.027999999999999997 
50.015101 0.027999999999999997 
51.018456 0.044000000000000004 
51.022927 0.044000000000000004 
52.021811 0.01 
52.026281 0.01 
52.030752 0.01 
53.029636 0.005 
53.034106 0.005 
53.038577 0.005 
54.041931 0.0 
54.046402 0.0 
55.054227 0.002 
56.057581 0.001 
56.062052 0.001 
59.999451 0.001 
61.002806 0.011000000000000001 
61.007276 0.011000000000000001 
62.010631 0.025 
62.015101 0.025 
63.018456 0.06 
63.022927 0.06 
64.021811 0.012 
64.026281 0.012 
64.029203 0.012 
64.030752 0.012 
65.029636 0.114 
65.034106 0.114 
65.038577 0.114 
66.041931 0.012 
66.044853 0.012 
67.045286 0.001 
67.054227 0.001 
71.999451 0.0 
73.007276 0.002 
74.010631 0.008 
74.015101 0.008 
75.018456 0.005 
75.022927 0.005 
76.026281 0.003 
76.030752 0.003 
77.034106 0.008 
77.038577 0.008 
78.041931 0.001 
78.046402 0.001 
83.999451 0.002 
85.002806 0.005 
85.007276 0.005 
86.010631 0.006999999999999999 
86.015101 0.006999999999999999 
87.018456 0.004 
87.022927 0.004 
88.026281 0.001 
88.030752 0.001 
89.034106 0.038 
89.038577 0.038 
90.041931 0.013999999999999999 
90.044853 0.013999999999999999 
90.046402 0.013999999999999999 
91.045286 1.0 
91.049756 1.0 
91.054227 1.0 
92.053111 0.562 
92.057581 0.562 
92.060503 0.562 
92.062052 0.562 
93.060936 0.038 
93.063858 0.038 
93.065407 0.038 
93.068328 0.038 
94.064291 0.001 
94.068761 0.001 
94.071683 0.001 
END IONS

BEGIN IONS
RUN_FILE=200602.1550.std.7.frag.train_CCl4
COMPOUND_INDEX=0
AVERAGE_RETENTION_TIME_SECONDS=1708.28
EST_PRECURSOR_FORMULA= HCCl3+,   CCl4+, H2CCl2+,  COCl2+
LIKELIHOOD_INDICATOR_IN_PERCENT=65.13, 64.04, 12.83,  9.64
DBE=0.0, 0.0, 0.0, 1.0
MOLECULAR_ION=True, True, True, True
COMPOUND_NAME=CCl4
PRECURSOR_FORMULA=CCl4
PRECURSOR_MZ=151.875410728
0.0 0.004 
34.968304 0.094 
35.976129 0.036000000000000004 
36.965354 0.031 
46.968304 0.13 
48.965354 0.040999999999999995 
81.937157 0.212 
82.944982 0.011000000000000001 
83.934207 0.136 
84.942032 0.005 
85.931257 0.019 
97.932071 0.005 
99.929121 0.004 
116.90601 0.996 
117.909364 0.006999999999999999 
118.903059 1.0 
119.906414 0.006 
120.900109 0.317 
122.897159 0.03 
END IONS

BEGIN IONS
RUN_FILE=200602.1550.std.7.frag.train_CFC11
COMPOUND_INDEX=0
AVERAGE_RETENTION_TIME_SECONDS=1572.09
EST_PRECURSOR_FORMULA=CFCl3+
LIKELIHOOD_INDICATOR_IN_PERCENT=88.27
DBE=0.0
MOLECULAR_ION=True
COMPOUND_NAME=CFC11
PRECURSOR_FORMULA=CCl3F
PRECURSOR_MZ=135.90496120873
0.0 0.002 
0.0 0.0 
30.997855 0.024 
34.968304 0.037000000000000005 
36.965354 0.013000000000000001 
46.968304 0.049 
47.971659 0.001 
48.965354 0.017 
49.968709 0.0 
53.966707 0.0 
65.966707 0.09300000000000001 
66.970062 0.001 
67.963757 0.031 
81.937157 0.032 
82.940512 0.0 
83.934207 0.021 
84.937562 0.0 
85.931257 0.003 
100.93556 1.0 
101.938915 0.01 
102.93261 0.6729999999999999 
103.935965 0.006999999999999999 
104.92966 0.10400000000000001 
105.933015 0.001 
116.90601 0.021 
117.909364 0.0 
118.903059 0.02 
119.906414 0.0 
120.900109 0.006 
122.897159 0.001 
135.904413 0.0 
137.901463 0.0 
END IONS

BEGIN IONS
RUN_FILE=200602.1550.std.7.frag.train_CFC113
COMPOUND_INDEX=0
AVERAGE_RETENTION_TIME_SECONDS=1650.51
EST_PRECURSOR_FORMULA=C2F3Cl3+
LIKELIHOOD_INDICATOR_IN_PERCENT=74.63
DBE=0.0
MOLECULAR_ION=True
COMPOUND_NAME=CFC113
PRECURSOR_FORMULA=C2Cl3F3
PRECURSOR_MZ=185.90176753419
0.0 0.001 
0.0 0.0 
0.0 0.0 
0.0 0.001 
0.0 0.002 
30.997855 0.057999999999999996 
34.968304 0.02 
36.965354 0.006999999999999999 
46.968304 0.053 
47.971659 0.001 
48.965354 0.015 
49.996258 0.022000000000000002 
58.968304 0.003 
60.965354 0.001 
61.996258 0.006 
65.966707 0.105 
66.970062 0.004 
67.963757 0.036000000000000004 
68.994661 0.005 
69.937157 0.001 
71.934207 0.001 
77.966707 0.016 
78.970062 0.0 
79.963757 0.005 
80.994661 0.006 
81.937157 0.032 
83.934207 0.018000000000000002 
84.937562 0.365 
84.96511 0.365 
85.931257 0.003 
85.968465 0.003 
86.96216 0.11699999999999999 
87.965515 0.001 
93.937157 0.002 
95.934207 0.001 
96.96511 0.006999999999999999 
98.96216 0.002 
100.93556 1.0 
101.938915 0.009000000000000001 
102.93261 0.648 
103.935965 0.006 
104.92966 0.10099999999999999 
105.933015 0.001 
112.93556 0.003 
114.93261 0.002 
115.963514 0.077 
116.90601 0.034 
116.92966 0.034 
116.92966 0.004 
116.966868 0.004 
117.960563 0.024 
118.903059 0.034 
118.963918 0.001 
120.900109 0.01 
122.897159 0.001 
131.933963 0.021 
132.937318 0.0 
133.931013 0.013000000000000001 
135.928063 0.002 
147.904413 0.0 
149.901463 0.0 
150.932366 0.934 
151.935721 0.017 
152.929416 0.5920000000000001 
153.932771 0.012 
154.926466 0.08800000000000001 
155.929821 0.001 
166.902816 0.005 
168.899866 0.005 
170.896916 0.001 
185.901219 0.0 
187.898269 0.0 
END IONS

BEGIN IONS
RUN_FILE=200602.1550.std.7.frag.train_CFC114
COMPOUND_INDEX=0
AVERAGE_RETENTION_TIME_SECONDS=1536.43
EST_PRECURSOR_FORMULA=C2F4Cl2+,  C2F5Cl+, C2F3Cl3+
LIKELIHOOD_INDICATOR_IN_PERCENT=66.48, 61.44, 35.45
DBE=0.0, 0.0, 0.0
MOLECULAR_ION=True, True, True
COMPOUND_NAME=CFC114
PRECURSOR_FORMULA=C2Cl2F4
PRECURSOR_MZ=169.93131801492
0.0 0.002 
30.997855 0.051 
34.968304 0.012 
36.965354 0.004 
42.997855 0.002 
46.968304 0.019 
48.965354 0.006 
49.996258 0.054000000000000006 
58.968304 0.001 
61.996258 0.003 
65.966707 0.045 
67.963757 0.013999999999999999 
68.994661 0.067 
69.998016 0.001 
77.966707 0.004 
79.963757 0.001 
80.994661 0.002 
81.937157 0.004 
83.934207 0.001 
84.96511 1.0 
85.968465 0.01 
86.96216 0.32299999999999995 
87.965515 0.003 
96.96511 0.001 
99.993064 0.071 
100.93556 0.16399999999999998 
101.938915 0.001 
102.93261 0.107 
104.92966 0.016 
115.963514 0.018000000000000002 
117.960563 0.005 
131.933963 0.001 
133.931013 0.0 
134.961917 0.8140000000000001 
135.965272 0.017 
136.958967 0.26 
137.962322 0.005 
150.932366 0.042 
152.929416 0.025 
154.926466 0.004 
END IONS

BEGIN IONS
RUN_FILE=200602.1550.std.7.frag.train_CFC115
COMPOUND_INDEX=0
AVERAGE_RETENTION_TIME_SECONDS=1409.14
EST_PRECURSOR_FORMULA= C2F5Cl+, C2F4Cl2+,    C2F6+
LIKELIHOOD_INDICATOR_IN_PERCENT=52.02, 27.62, 22.28
DBE=0.0, 0.0, 0.0
MOLECULAR_ION=True, True, True
COMPOUND_NAME=CFC115
PRECURSOR_FORMULA=C2ClF5
PRECURSOR_MZ=153.96086849565
30.997855 0.06 
34.968304 0.006999999999999999 
46.968304 0.009000000000000001 
48.965354 0.001 
49.996258 0.07200000000000001 
61.996258 0.001 
65.966707 0.024 
67.963757 0.006999999999999999 
68.994661 0.508 
69.998016 0.005 
84.96511 1.0 
85.968465 0.01 
86.96216 0.33 
87.965515 0.002 
99.993064 0.034 
115.963514 0.003 
118.991467 0.8059999999999999 
119.994822 0.016 
134.961917 0.359 
135.965272 0.006 
136.958967 0.114 
END IONS

BEGIN IONS
RUN_FILE=200602.1550.std.7.frag.train_CFC12
COMPOUND_INDEX=0
AVERAGE_RETENTION_TIME_SECONDS=1441.60
EST_PRECURSOR_FORMULA=CF2Cl2+
LIKELIHOOD_INDICATOR_IN_PERCENT=91.37
DBE=0.0
MOLECULAR_ION=True
COMPOUND_NAME=CFC12
PRECURSOR_FORMULA=CCl2F2
PRECURSOR_MZ=119.93451168946
0.0 0.001 
0.0 0.0 
0.0 0.0 
0.0 0.001 
0.0 0.0 
30.997855 0.022000000000000002 
34.968304 0.024 
36.965354 0.008 
46.968304 0.016 
47.971659 0.0 
48.965354 0.005 
49.996258 0.07400000000000001 
53.966707 0.0 
55.963757 0.0 
65.966707 0.027999999999999997 
67.963757 0.009000000000000001 
69.937157 0.002 
71.934207 0.001 
73.931257 0.0 
81.937157 0.001 
83.934207 0.001 
84.96511 1.0 
85.968465 0.01 
86.96216 0.321 
87.965515 0.003 
100.93556 0.092 
101.938915 0.001 
102.93261 0.057999999999999996 
103.935965 0.001 
104.92966 0.009000000000000001 
105.933015 0.0 
119.933963 0.002 
121.931013 0.001 
123.928063 0.0 
END IONS

BEGIN IONS
RUN_FILE=200602.1550.std.7.frag.train_CFC13
COMPOUND_INDEX=0
AVERAGE_RETENTION_TIME_SECONDS=1298.01
EST_PRECURSOR_FORMULA= CF3Cl+,    CF4+, CF2Cl2+
LIKELIHOOD_INDICATOR_IN_PERCENT=39.59, 28.76,  8.25
DBE=0.0, 0.0, 0.0
MOLECULAR_ION=True, True, True
COMPOUND_NAME=CFC13
PRECURSOR_FORMULA=CClF3
PRECURSOR_MZ=103.96406217019
34.968304 0.023 
36.965354 0.023 
49.996258 0.091 
68.994661 1.0 
69.998016 0.006 
84.96511 0.297 
86.96216 0.085 
END IONS

BEGIN IONS
RUN_FILE=200602.1550.std.7.frag.train_CH2Br2
COMPOUND_INDEX=0
AVERAGE_RETENTION_TIME_SECONDS=1790.97
EST_PRECURSOR_FORMULA=H2CBr2+
LIKELIHOOD_INDICATOR_IN_PERCENT=43.60
DBE=0.0
MOLECULAR_ION=True
COMPOUND_NAME=CH2Br2
PRECURSOR_FORMULA=CH2Br2
PRECURSOR_MZ=171.85232526446
78.917789 0.132 
80.915741 0.109 
90.917789 0.081 
92.915741 0.7959999999999999 
92.933439 0.7959999999999999 
94.931391 0.772 
171.851777 0.518 
173.849729 1.0 
175.847681 0.531 
END IONS

BEGIN IONS
RUN_FILE=200602.1550.std.7.frag.train_CH2Cl2
COMPOUND_INDEX=0
AVERAGE_RETENTION_TIME_SECONDS=1626.37
EST_PRECURSOR_FORMULA=H2CCl2+
LIKELIHOOD_INDICATOR_IN_PERCENT=99.18
DBE=0.0
MOLECULAR_ION=True
COMPOUND_NAME=CH2Cl2
PRECURSOR_FORMULA=CH2Cl2
PRECURSOR_MZ=83.95335542846
0.0 0.003 
0.0 0.025 
0.0 0.017 
34.968304 0.047 
35.976129 0.01 
36.965354 0.017 
37.973179 0.003 
46.968304 0.161 
47.971659 0.077 
47.976129 0.077 
48.965354 0.888 
48.979484 0.888 
48.983954 0.888 
49.968709 0.031 
49.973179 0.031 
49.987309 0.031 
50.981004 0.29 
51.984359 0.003 
69.937157 0.004 
71.934207 0.002 
81.937157 0.009000000000000001 
82.944982 0.03 
83.934207 1.0 
83.952807 1.0 
84.942032 0.027999999999999997 
84.956162 0.027999999999999997 
85.931257 0.637 
85.949857 0.637 
86.939082 0.009000000000000001 
86.953212 0.009000000000000001 
87.946907 0.10099999999999999 
88.950262 0.0 
END IONS

BEGIN IONS
RUN_FILE=200602.1550.std.7.frag.train_CH3Br
COMPOUND_INDEX=0
AVERAGE_RETENTION_TIME_SECONDS=1549.64
EST_PRECURSOR_FORMULA=H3CBr+
LIKELIHOOD_INDICATOR_IN_PERCENT=76.88
DBE=0.0
MOLECULAR_ION=True
COMPOUND_NAME=CH3Br
PRECURSOR_FORMULA=CH3Br
PRECURSOR_MZ=93.94181269669001
78.917789 0.087 
79.925614 0.013000000000000001 
80.915741 0.084 
90.917789 0.075 
91.925614 0.037000000000000005 
92.915741 0.185 
93.923566 1.0 
93.941264 1.0 
94.944619 0.136 
95.939216 0.9690000000000001 
96.942571 0.008 
END IONS

BEGIN IONS
RUN_FILE=200602.1550.std.7.frag.train_CH3Cl
COMPOUND_INDEX=0
AVERAGE_RETENTION_TIME_SECONDS=1494.70
EST_PRECURSOR_FORMULA=H3CCl+,    CF+
LIKELIHOOD_INDICATOR_IN_PERCENT=79.00,  0.03
DBE=0.0, 1.5
MOLECULAR_ION= True, False
COMPOUND_NAME=CH3Cl
PRECURSOR_FORMULA=CH3Cl
PRECURSOR_MZ=49.99232777869
30.997855 0.0 
34.968304 0.021 
35.976129 0.006999999999999999 
36.965354 0.006999999999999999 
37.973179 0.002 
46.968304 0.07200000000000001 
47.971659 0.034 
47.976129 0.034 
48.965354 0.08 
48.979484 0.08 
49.973179 1.0 
49.991779 1.0 
50.976534 0.03 
50.995134 0.03 
50.998056 0.03 
51.988829 0.331 
52.992184 0.004 
52.995106 0.004 
END IONS

BEGIN IONS
RUN_FILE=200602.1550.std.7.frag.train_CH3I
COMPOUND_INDEX=0
AVERAGE_RETENTION_TIME_SECONDS=1616.32
EST_PRECURSOR_FORMULA=H3CI+
LIKELIHOOD_INDICATOR_IN_PERCENT=66.67
DBE=0.0
MOLECULAR_ION=True
COMPOUND_NAME=CH3I
PRECURSOR_FORMULA=CH3I
PRECURSOR_MZ=141.92794699669
126.903923 0.342 
138.903923 0.027999999999999997 
140.919573 0.111 
141.927398 1.0 
END IONS

BEGIN IONS
RUN_FILE=200602.1550.std.7.frag.train_CHCl3
COMPOUND_INDEX=0
AVERAGE_RETENTION_TIME_SECONDS=1690.65
EST_PRECURSOR_FORMULA=HCCl3+
LIKELIHOOD_INDICATOR_IN_PERCENT=63.35
DBE=0.0
MOLECULAR_ION=True
COMPOUND_NAME=CHCl3
PRECURSOR_FORMULA=CHCl3
PRECURSOR_MZ=117.91438307822999
0.0 0.06 
0.0 0.026000000000000002 
0.0 0.003 
46.968304 0.168 
48.965354 0.06 
69.937157 0.003 
81.937157 0.033 
82.944982 1.0 
83.934207 0.033 
83.948337 0.033 
84.942032 0.648 
85.931257 0.01 
85.945387 0.01 
86.939082 0.105 
116.90601 0.011000000000000001 
117.913835 0.017 
118.903059 0.013000000000000001 
119.910884 0.018000000000000002 
120.900109 0.003 
121.907934 0.005 
END IONS

BEGIN IONS
RUN_FILE=200602.1550.std.7.frag.train_COS
COMPOUND_INDEX=0
AVERAGE_RETENTION_TIME_SECONDS=1363.96
EST_PRECURSOR_FORMULA=COS+, O2S+
LIKELIHOOD_INDICATOR_IN_PERCENT=58.31,  7.57
DBE=4.0, 3.0
MOLECULAR_ION= True, False
COMPOUND_NAME=COS
PRECURSOR_FORMULA=COS
PRECURSOR_MZ=59.96698579397
0.0 0.019 
0.0 0.009000000000000001 
0.0 0.001 
0.0 0.0 
31.971522 0.11599999999999999 
32.97091 0.001 
33.967318 0.009000000000000001 
47.966437 0.001 
59.966437 1.0 
60.965825 0.019 
60.969792 0.019 
60.970654 0.019 
61.962233 0.047 
61.970683 0.047 
62.965588 0.0 
63.961351 0.0 
END IONS

BEGIN IONS
RUN_FILE=200602.1550.std.7.frag.train_Halon1211
COMPOUND_INDEX=0
AVERAGE_RETENTION_TIME_SECONDS=1514.94
EST_PRECURSOR_FORMULA=CF2ClBr+,   CF3Cl+,  CF2Cl2+,   CF3Br+,  CF2Br2+, CFClBr2+, CFCl2Br+
LIKELIHOOD_INDICATOR_IN_PERCENT=63.49, 31.47, 26.23, 18.88, 15.73,  8.78,  8.78
DBE=0.0, 0.0, 0.0, 0.0, 0.0, 0.0, 0.0
MOLECULAR_ION=True, True, True, True, True, True, True
COMPOUND_NAME=Halon1211
PRECURSOR_FORMULA=CBrClF2
PRECURSOR_MZ=163.88399660746
0.0 0.006 
30.997855 0.027000000000000003 
46.968304 0.011000000000000001 
48.965354 0.002 
49.996258 0.068 
65.966707 0.023 
67.963757 0.027000000000000003 
78.917789 0.079 
80.915741 0.079 
84.96511 1.0 
85.968465 0.006999999999999999 
86.96216 0.322 
87.965515 0.003 
90.917789 0.006 
92.915741 0.006999999999999999 
109.916192 0.008 
111.914144 0.009000000000000001 
113.886642 0.002 
115.884594 0.002 
128.914595 0.23 
129.91795 0.002 
130.912547 0.23399999999999999 
144.885045 0.068 
146.882095 0.08800000000000001 
146.882997 0.08800000000000001 
148.880047 0.021 
END IONS

BEGIN IONS
RUN_FILE=200602.1550.std.7.frag.train_Halon1301
COMPOUND_INDEX=0
AVERAGE_RETENTION_TIME_SECONDS=1369.93
EST_PRECURSOR_FORMULA=CF3Br+
LIKELIHOOD_INDICATOR_IN_PERCENT=69.44
DBE=0.0
MOLECULAR_ION=True
COMPOUND_NAME=Halon1301
PRECURSOR_FORMULA=CBrF3
PRECURSOR_MZ=147.91354708819
0.0 0.003 
30.997855 0.012 
49.996258 0.053 
68.994661 1.0 
69.998016 0.01 
78.917789 0.086 
80.915741 0.08800000000000001 
90.917789 0.002 
128.914595 0.235 
130.912547 0.23600000000000002 
147.912999 0.162 
149.910951 0.16 
END IONS

BEGIN IONS
RUN_FILE=200602.1550.std.7.frag.train_HCFC124
COMPOUND_INDEX=0
AVERAGE_RETENTION_TIME_SECONDS=1540.92
EST_PRECURSOR_FORMULA=HC2F4Cl+
LIKELIHOOD_INDICATOR_IN_PERCENT=17.85
DBE=0.0
MOLECULAR_ION=True
COMPOUND_NAME=HCFC124
PRECURSOR_FORMULA=C2HClF4
PRECURSOR_MZ=135.97029036515
51.004083 0.585 
66.974532 0.9259999999999999 
68.971582 0.465 
68.994661 0.465 
82.002486 0.019 
101.000889 1.0 
116.971339 0.272 
135.969742 0.028999999999999998 
END IONS

BEGIN IONS
RUN_FILE=200602.1550.std.7.frag.train_HCFC141b
COMPOUND_INDEX=0
AVERAGE_RETENTION_TIME_SECONDS=1645.58
EST_PRECURSOR_FORMULA= H4C2FCl+, H3C2FCl2+, H3C2F2Cl+,   H3NO2S+,  H2NO2FS+, H2NO2SCl+
LIKELIHOOD_INDICATOR_IN_PERCENT=27.77, 24.90, 21.46,  0.03,  0.02,  0.02
DBE=0.0, 0.0, 0.0, 2.0, 2.0, 2.0
MOLECULAR_ION=True, True, True, True, True, True
COMPOUND_NAME=HCFC141b
PRECURSOR_FORMULA=C2H3Cl2F
PRECURSOR_MZ=115.95958362342
26.015101 0.018000000000000002 
34.968304 0.021 
35.976129 0.04 
45.013505 0.332 
46.016859 0.018000000000000002 
46.02133 0.018000000000000002 
59.976129 0.047 
60.983954 0.33399999999999996 
61.973179 0.019 
61.987309 0.019 
62.981004 0.107 
78.97225 0.03 
78.974532 0.03 
79.980075 0.292 
79.982357 0.292 
80.971582 1.0 
80.985712 1.0 
80.990182 1.0 
81.975872 0.111 
81.979407 0.111 
81.993537 0.111 
82.987232 0.32 
83.990587 0.005 
95.952807 0.09 
97.949857 0.057999999999999996 
END IONS

BEGIN IONS
RUN_FILE=200602.1550.std.7.frag.train_HCFC142b
COMPOUND_INDEX=0
AVERAGE_RETENTION_TIME_SECONDS=1545.30
EST_PRECURSOR_FORMULA= H3C2F2Cl+,    H4C2F2+,    H3C2F3+,  H2C2F3Cl+, H2C2F2Cl2+,   H4C2FCl+,  H3C2FCl2+
LIKELIHOOD_INDICATOR_IN_PERCENT=63.31, 35.56, 31.45, 23.05, 19.94, 15.66, 12.10
DBE=0.0, 0.0, 0.0, 0.0, 0.0, 0.0, 0.0
MOLECULAR_ION=True, True, True, True, True, True, True
COMPOUND_NAME=HCFC142b
PRECURSOR_FORMULA=C2H3ClF2
PRECURSOR_MZ=99.98913410415001
0.0 0.001 
0.0 0.003 
0.0 0.005 
0.0 0.015 
26.015101 0.004 
30.997855 0.025 
33.013505 0.009000000000000001 
34.968304 0.011000000000000001 
35.976129 0.003 
36.965354 0.003 
37.973179 0.001 
42.997855 0.003 
45.013505 0.242 
46.016859 0.01 
46.02133 0.01 
46.968304 0.004 
47.976129 0.006 
48.965354 0.009000000000000001 
48.983954 0.009000000000000001 
49.996258 0.009000000000000001 
50.981004 0.01 
51.004083 0.01 
58.968304 0.001 
59.976129 0.006 
60.983954 0.040999999999999995 
61.973179 0.002 
61.987309 0.002 
61.991779 0.002 
62.981004 0.027000000000000003 
63.004083 0.027000000000000003 
63.988829 0.085 
64.011908 0.085 
65.015263 1.0 
65.019733 1.0 
65.966707 0.002 
66.023088 0.023 
66.974532 0.003 
78.974532 0.011000000000000001 
79.982357 0.031 
80.971582 0.047 
80.985712 0.047 
80.990182 0.047 
81.979407 0.01 
81.993537 0.01 
82.987232 0.013999999999999999 
84.96511 0.198 
85.968465 0.001 
86.96216 0.063 
97.972935 0.001 
98.980761 0.001 
END IONS

BEGIN IONS
RUN_FILE=200602.1550.std.7.frag.train_HCFC22
COMPOUND_INDEX=0
AVERAGE_RETENTION_TIME_SECONDS=1446.24
EST_PRECURSOR_FORMULA=HCF2Cl+
LIKELIHOOD_INDICATOR_IN_PERCENT=78.10
DBE=0.0
MOLECULAR_ION=True
COMPOUND_NAME=HCFC22
PRECURSOR_FORMULA=CHClF2
PRECURSOR_MZ=85.97348403969
0.0 0.0 
0.0 0.0 
30.997855 0.055999999999999994 
32.001209 0.008 
34.968304 0.038 
35.976129 0.005 
36.965354 0.013000000000000001 
37.973179 0.002 
46.968304 0.018000000000000002 
47.971659 0.003 
47.976129 0.003 
48.965354 0.006 
49.996258 0.064 
50.999613 1.0 
51.004083 1.0 
52.007438 0.011000000000000001 
52.01036 0.011000000000000001 
53.966707 0.0 
65.966707 0.026000000000000002 
66.970062 0.155 
66.974532 0.155 
67.963757 0.01 
67.977887 0.01 
68.971582 0.049 
69.974937 0.0 
85.972935 0.023 
87.969985 0.006999999999999999 
END IONS

BEGIN IONS
RUN_FILE=200602.1550.std.7.frag.train_PFC116
COMPOUND_INDEX=0
AVERAGE_RETENTION_TIME_SECONDS=1280.97
EST_PRECURSOR_FORMULA=C2F6+
LIKELIHOOD_INDICATOR_IN_PERCENT=33.33
DBE=0.0
MOLECULAR_ION=True
COMPOUND_NAME=PFC116
PRECURSOR_FORMULA=PFC116
PRECURSOR_MZ=1441.97216516115
30.997855 0.046 
49.996258 0.03 
68.994661 1.0 
69.998016 0.006 
118.991467 0.6629999999999999 
119.994822 0.009000000000000001 
END IONS

BEGIN IONS
RUN_FILE=200602.1550.std.7.frag.train_PFC218
COMPOUND_INDEX=0
AVERAGE_RETENTION_TIME_SECONDS=1381.28
EST_PRECURSOR_FORMULA=C3F8+
LIKELIHOOD_INDICATOR_IN_PERCENT=19.04
DBE=0.0
MOLECULAR_ION=True
COMPOUND_NAME=PFC218
PRECURSOR_FORMULA=PFC218
PRECURSOR_MZ=2665.97216516115
68.994661 1.0 
69.998016 0.006999999999999999 
99.993064 0.07200000000000001 
118.991467 0.102 
168.988274 0.353 
169.991628 0.004 
END IONS

BEGIN IONS
RUN_FILE=200602.1550.std.7.frag.train_PFCc318
COMPOUND_INDEX=0
AVERAGE_RETENTION_TIME_SECONDS=1481.48
EST_PRECURSOR_FORMULA=C3F6+
LIKELIHOOD_INDICATOR_IN_PERCENT=47.37
DBE=1.0
MOLECULAR_ION=True
COMPOUND_NAME=PFCc318
PRECURSOR_FORMULA=C4F8
PRECURSOR_MZ=199.98722530184
30.997855 0.069 
49.996258 0.043 
61.996258 0.006 
73.996258 0.009000000000000001 
80.994661 0.009000000000000001 
92.994661 0.066 
99.993064 0.7929999999999999 
100.996419 0.017 
111.993064 0.01 
130.991467 1.0 
131.994822 0.031 
END IONS

BEGIN IONS
RUN_FILE=200602.1550.std.7.frag.train_SF6
COMPOUND_INDEX=0
AVERAGE_RETENTION_TIME_SECONDS=1291.35
EST_PRECURSOR_FORMULA=F6S+
LIKELIHOOD_INDICATOR_IN_PERCENT=61.75
DBE=0.0
MOLECULAR_ION=True
COMPOUND_NAME=SF6
PRECURSOR_FORMULA=SF6
PRECURSOR_MZ=145.96249015078
0.0 0.017 
50.969925 0.018000000000000002 
69.968328 0.024 
88.966732 0.17800000000000002 
90.962528 0.006999999999999999 
107.965135 0.084 
109.960931 0.003 
126.963538 1.0 
127.962926 0.006 
128.959334 0.044000000000000004 
END IONS

BEGIN IONS
RUN_FILE=200602.1550.std.7.frag.val_HCFO1233zdE
COMPOUND_INDEX=0
AVERAGE_RETENTION_TIME_SECONDS=1603.78
EST_PRECURSOR_FORMULA=H2C3F3Cl+
LIKELIHOOD_INDICATOR_IN_PERCENT=11.59
DBE=1.0
MOLECULAR_ION=True
COMPOUND_NAME=HCFO1233zdE
PRECURSOR_FORMULA=C3H2ClF3
PRECURSOR_MZ=129.97971223465
60.983954 0.047 
68.994661 0.344 
75.004083 0.142 
79.982357 0.16899999999999998 
81.979407 0.05 
84.96511 0.121 
86.96216 0.04 
95.010311 1.0 
96.013666 0.023 
110.980761 0.268 
112.97781 0.069 
129.979164 0.529 
131.976214 0.154 
END IONS

BEGIN IONS
RUN_FILE=200602.1550.std.7.frag.val_HFO1234yf
COMPOUND_INDEX=0
AVERAGE_RETENTION_TIME_SECONDS=1479.33
EST_PRECURSOR_FORMULA=H2C3F4+
LIKELIHOOD_INDICATOR_IN_PERCENT=30.00
DBE=1.0
MOLECULAR_ION=True
COMPOUND_NAME=HFO1234yf
PRECURSOR_FORMULA=C2H3F4
PRECURSOR_MZ=103.01708774761
45.013505 0.281 
51.004083 0.027999999999999997 
64.011908 0.7190000000000001 
68.994661 1.0 
69.998016 0.013999999999999999 
70.002486 0.013999999999999999 
73.996258 0.011000000000000001 
75.004083 0.11 
76.011908 0.005 
94.002486 0.027999999999999997 
95.010311 0.39799999999999996 
96.013666 0.012 
113.000889 0.23800000000000002 
114.004244 0.748 
114.008714 0.748 
115.012069 0.017 
END IONS

BEGIN IONS
RUN_FILE=200602.1550.std.7.frag.val_HFO1234zeE
COMPOUND_INDEX=0
AVERAGE_RETENTION_TIME_SECONDS=1509.42
EST_PRECURSOR_FORMULA=H2C3F4+
LIKELIHOOD_INDICATOR_IN_PERCENT=41.85
DBE=1.0
MOLECULAR_ION=True
COMPOUND_NAME=HFO1234zeE
PRECURSOR_FORMULA=C2H3F4
PRECURSOR_MZ=103.01708774761
0.0 0.053 
30.997855 0.075 
33.013505 0.019 
45.013505 0.08199999999999999 
51.004083 0.155 
54.997855 0.01 
56.00568 0.01 
68.994661 1.0 
69.998016 0.01 
73.996258 0.012 
75.004083 0.11699999999999999 
76.011908 0.008 
83.010311 0.051 
92.994661 0.055 
94.002486 0.025 
95.010311 0.603 
96.013666 0.019 
101.000889 0.005 
113.000889 0.45299999999999996 
114.004244 0.6709999999999999 
114.008714 0.6709999999999999 
115.012069 0.019 
END IONS

BEGIN IONS
RUN_FILE=200714.2200.cal6L.7.frag.train_CF4
COMPOUND_INDEX=0
AVERAGE_RETENTION_TIME_SECONDS=272.52
EST_PRECURSOR_FORMULA=CF2+
LIKELIHOOD_INDICATOR_IN_PERCENT=7.07
DBE=1.0
MOLECULAR_ION=False
COMPOUND_NAME=CF4
PRECURSOR_FORMULA=CF4
PRECURSOR_MZ=87.99361265092
0.0 1.0 
0.0 0.012 
30.997855 0.008 
37.996258 0.0 
49.996258 0.068 
50.999613 0.001 
END IONS

BEGIN IONS
RUN_FILE=200714.2200.cal6L.7.frag.train_Halon2402
COMPOUND_INDEX=0
AVERAGE_RETENTION_TIME_SECONDS=1661.50
EST_PRECURSOR_FORMULA=C2F4Br2+
LIKELIHOOD_INDICATOR_IN_PERCENT=32.72
DBE=0.0
MOLECULAR_ION=True
COMPOUND_NAME=Halon2402
PRECURSOR_FORMULA=C2Br2F4
PRECURSOR_MZ=257.83028785092
78.917789 0.048 
80.915741 0.037000000000000005 
80.994661 0.065 
99.993064 0.195 
109.916192 0.03 
111.914144 0.027999999999999997 
128.914595 0.36700000000000005 
130.912547 0.335 
159.912999 0.031 
161.910951 0.048 
178.911402 1.0 
179.914757 0.013999999999999999 
180.909354 0.929 
181.912709 0.018000000000000002 
188.83453 0.022000000000000002 
190.832482 0.053 
192.830434 0.036000000000000004 
238.831336 0.012 
240.829288 0.022000000000000002 
257.829739 0.037000000000000005 
259.827691 0.083 
261.825643 0.037000000000000005 
END IONS

BEGIN IONS
RUN_FILE=200714.2200.cal6L.7.frag.train_NF3
COMPOUND_INDEX=0
AVERAGE_RETENTION_TIME_SECONDS=274.41
EST_PRECURSOR_FORMULA=NF3+
LIKELIHOOD_INDICATOR_IN_PERCENT=49.87
DBE=0.0
MOLECULAR_ION=True
COMPOUND_NAME=NF3
PRECURSOR_FORMULA=NF3
PRECURSOR_MZ=70.99828349262
51.999332 1.0 
70.997735 0.496 
END IONS

BEGIN IONS
RUN_FILE=200714.2200.cal6L.7.frag.train_SF5CF3
COMPOUND_INDEX=0
AVERAGE_RETENTION_TIME_SECONDS=1421.46
EST_PRECURSOR_FORMULA=F6S+, CF4+
LIKELIHOOD_INDICATOR_IN_PERCENT=19.16, 12.44
DBE=0.0, 0.0
MOLECULAR_ION=True, True
COMPOUND_NAME=SF5CF3
PRECURSOR_FORMULA=SF5CF3
PRECURSOR_MZ=195.95929647624
68.994661 1.0 
69.968328 0.055999999999999994 
69.998016 0.055999999999999994 
88.966732 0.41 
90.962528 0.008 
107.965135 0.012 
126.963538 0.139 
END IONS

BEGIN IONS
RUN_FILE=200714.2200.cal6L.7.frag.train_SO2F2
COMPOUND_INDEX=0
AVERAGE_RETENTION_TIME_SECONDS=1385.37
EST_PRECURSOR_FORMULA=O3FCl+
LIKELIHOOD_INDICATOR_IN_PERCENT=22.83
DBE=0.0
MOLECULAR_ION=True
COMPOUND_NAME=SO2F2
PRECURSOR_FORMULA=SO2F2
PRECURSOR_MZ=101.958706739
66.958133 0.138 
82.953048 1.0 
101.951451 0.569 
END IONS

